12° run output:
{
    "Function": "kroA1000.tsp",
    "Problem dimension": [
        259,
        130,
        679,
        418,
        379,
        825,
        400,
        871,
        531,
        155,
        714,
        845,
        946,
        304,
        413,
        517,
        937,
        863,
        372,
        855,
        905,
        541,
        747,
        192,
        698,
        30,
        562,
        335,
        616,
        480,
        653,
        518,
        120,
        610,
        424,
        930,
        298,
        492,
        336,
        339,
        785,
        430,
        691,
        669,
        257,
        682,
        684,
        820,
        226,
        502,
        324,
        659,
        802,
        899,
        580,
        617,
        228,
        929,
        892,
        514,
        792,
        840,
        829,
        501,
        445,
        677,
        795,
        671,
        951,
        504,
        342,
        111,
        25,
        873,
        168,
        63,
        839,
        577,
        706,
        728,
        196,
        443,
        807,
        320,
        274,
        101,
        470,
        923,
        215,
        932,
        705,
        20,
        174,
        594,
        493,
        818,
        737,
        268,
        555,
        209,
        719,
        299,
        846,
        994,
        685,
        405,
        920,
        599,
        640,
        316,
        358,
        788,
        769,
        822,
        949,
        575,
        963,
        227,
        454,
        212,
        327,
        733,
        271,
        37,
        904,
        83,
        108,
        620,
        300,
        919,
        993,
        707,
        835,
        646,
        99,
        962,
        991,
        417,
        753,
        322,
        468,
        131,
        407,
        80,
        847,
        794,
        475,
        781,
        348,
        626,
        220,
        550,
        139,
        522,
        328,
        340,
        23,
        770,
        948,
        110,
        403,
        658,
        118,
        65,
        198,
        548,
        701,
        248,
        142,
        149,
        513,
        751,
        484,
        216,
        157,
        278,
        796,
        256,
        742,
        284,
        867,
        124,
        911,
        780,
        9,
        601,
        104,
        173,
        838,
        147,
        966,
        697,
        680,
        183,
        74,
        332,
        683,
        976,
        191,
        750,
        985,
        53,
        896,
        665,
        895,
        777,
        947,
        982,
        486,
        915,
        762,
        766,
        824,
        250,
        786,
        67,
        85,
        96,
        321,
        772,
        189,
        726,
        201,
        535,
        345,
        567,
        240,
        338,
        718,
        54,
        624,
        608,
        35,
        395,
        86,
        199,
        821,
        326,
        305,
        712,
        997,
        980,
        596,
        238,
        297,
        849,
        313,
        898,
        213,
        341,
        736,
        481,
        520,
        612,
        394,
        992,
        217,
        450,
        790,
        222,
        837,
        765,
        64,
        527,
        459,
        661,
        45,
        582,
        128,
        232,
        975,
        188,
        125,
        438,
        761,
        961,
        350,
        145,
        585,
        524,
        50,
        609,
        872,
        627,
        542,
        275,
        989,
        82,
        94,
        981,
        182,
        397,
        360,
        886,
        964,
        464,
        34,
        536,
        826,
        912,
        741,
        843,
        289,
        910,
        984,
        817,
        160,
        703,
        133,
        479,
        460,
        467,
        952,
        471,
        466,
        150,
        771,
        334,
        163,
        763,
        143,
        90,
        483,
        87,
        734,
        349,
        14,
        561,
        230,
        51,
        461,
        88,
        243,
        556,
        154,
        651,
        353,
        623,
        7,
        696,
        457,
        836,
        378,
        246,
        357,
        942,
        382,
        998,
        273,
        727,
        167,
        755,
        27,
        302,
        815,
        229,
        876,
        236,
        422,
        593,
        973,
        854,
        828,
        883,
        79,
        739,
        800,
        180,
        333,
        419,
        858,
        688,
        254,
        377,
        343,
        819,
        218,
        487,
        362,
        177,
        619,
        281,
        996,
        373,
        315,
        453,
        148,
        48,
        537,
        654,
        190,
        462,
        587,
        442,
        655,
        543,
        934,
        576,
        303,
        844,
        283,
        455,
        448,
        224,
        251,
        689,
        590,
        162,
        295,
        245,
        827,
        172,
        956,
        458,
        738,
        423,
        495,
        724,
        939,
        642,
        552,
        570,
        356,
        103,
        573,
        106,
        924,
        19,
        365,
        660,
        376,
        834,
        730,
        917,
        645,
        109,
        901,
        868,
        138,
        10,
        15,
        140,
        812,
        632,
        392,
        888,
        887,
        589,
        754,
        152,
        337,
        241,
        508,
        370,
        549,
        600,
        999,
        296,
        494,
        636,
        221,
        433,
        317,
        990,
        385,
        388,
        598,
        921,
        225,
        702,
        783,
        390,
        699,
        801,
        249,
        399,
        347,
        310,
        890,
        61,
        931,
        127,
        988,
        933,
        476,
        558,
        33,
        756,
        367,
        711,
        968,
        656,
        371,
        979,
        381,
        657,
        29,
        618,
        764,
        208,
        431,
        68,
        57,
        559,
        55,
        178,
        18,
        615,
        967,
        203,
        586,
        344,
        841,
        974,
        509,
        700,
        637,
        534,
        909,
        352,
        782,
        693,
        735,
        81,
        638,
        387,
        692,
        813,
        202,
        533,
        927,
        331,
        329,
        789,
        325,
        649,
        681,
        49,
        472,
        885,
        977,
        959,
        539,
        258,
        361,
        634,
        644,
        43,
        851,
        171,
        547,
        31,
        955,
        491,
        2,
        852,
        938,
        146,
        538,
        830,
        288,
        774,
        987,
        77,
        137,
        877,
        740,
        866,
        814,
        72,
        22,
        704,
        880,
        307,
        16,
        496,
        102,
        411,
        809,
        136,
        971,
        569,
        266,
        233,
        151,
        193,
        579,
        194,
        314,
        529,
        253,
        91,
        355,
        725,
        808,
        21,
        490,
        265,
        540,
        52,
        285,
        775,
        903,
        277,
        916,
        882,
        452,
        652,
        694,
        566,
        132,
        13,
        286,
        126,
        477,
        936,
        42,
        122,
        881,
        66,
        261,
        17,
        252,
        943,
        384,
        532,
        24,
        474,
        953,
        758,
        972,
        544,
        412,
        291,
        156,
        92,
        978,
        242,
        633,
        546,
        306,
        870,
        214,
        791,
        463,
        512,
        391,
        944,
        60,
        708,
        204,
        312,
        565,
        505,
        578,
        264,
        922,
        893,
        473,
        449,
        114,
        731,
        678,
        270,
        89,
        195,
        93,
        3,
        375,
        595,
        925,
        860,
        408,
        672,
        368,
        166,
        319,
        716,
        153,
        421,
        26,
        641,
        364,
        557,
        717,
        129,
        797,
        276,
        647,
        553,
        572,
        416,
        902,
        643,
        816,
        374,
        965,
        667,
        440,
        366,
        926,
        71,
        605,
        247,
        59,
        11,
        574,
        958,
        482,
        158,
        0,
        768,
        995,
        12,
        606,
        784,
        100,
        210,
        663,
        112,
        179,
        732,
        670,
        380,
        833,
        170,
        861,
        884,
        499,
        668,
        864,
        744,
        427,
        560,
        269,
        262,
        874,
        169,
        393,
        630,
        434,
        607,
        970,
        787,
        36,
        869,
        287,
        506,
        330,
        954,
        95,
        554,
        383,
        969,
        515,
        478,
        662,
        804,
        940,
        889,
        105,
        446,
        244,
        161,
        32,
        776,
        875,
        1,
        223,
        4,
        409,
        799,
        832,
        47,
        279,
        906,
        908,
        805,
        625,
        426,
        231,
        239,
        629,
        793,
        293,
        690,
        918,
        159,
        525,
        447,
        723,
        848,
        935,
        914,
        410,
        713,
        507,
        687,
        519,
        58,
        235,
        650,
        856,
        280,
        255,
        41,
        611,
        588,
        521,
        760,
        894,
        432,
        983,
        39,
        165,
        798,
        773,
        206,
        456,
        950,
        960,
        115,
        219,
        749,
        205,
        444,
        878,
        503,
        720,
        469,
        428,
        673,
        710,
        116,
        721,
        363,
        729,
        571,
        441,
        584,
        211,
        639,
        900,
        865,
        396,
        62,
        516,
        451,
        185,
        404,
        6,
        323,
        715,
        779,
        614,
        78,
        831,
        401,
        676,
        84,
        263,
        628,
        583,
        40,
        308,
        415,
        497,
        602,
        850,
        709,
        545,
        551,
        181,
        144,
        176,
        46,
        429,
        439,
        402,
        294,
        622,
        290,
        98,
        913,
        369,
        5,
        465,
        346,
        722,
        73,
        485,
        675,
        44,
        631,
        853,
        8,
        135,
        113,
        141,
        386,
        564,
        891,
        123,
        859,
        748,
        635,
        811,
        134,
        311,
        528,
        267,
        803,
        272,
        526,
        879,
        389,
        767,
        425,
        197,
        581,
        621,
        500,
        591,
        510,
        175,
        664,
        309,
        674,
        435,
        666,
        38,
        806,
        359,
        97,
        489,
        897,
        351,
        56,
        398,
        69,
        686,
        945,
        292,
        282,
        613,
        186,
        530,
        745,
        75,
        757,
        511,
        907,
        237,
        234,
        752,
        318,
        184,
        759,
        597,
        436,
        928,
        28,
        523,
        695,
        604,
        862,
        187,
        986,
        207,
        568,
        941,
        842,
        164,
        957,
        592,
        107,
        121,
        498,
        70,
        603,
        437,
        810,
        488,
        406,
        778,
        76,
        414,
        746,
        563,
        420,
        743,
        823,
        200,
        117,
        301,
        354,
        857,
        260,
        119,
        648
    ],
    "Global Optimum": 0,
    "Algorithm": "Genetic algorithm",
    "Parameters": {
        "population": 30,
        "offspring": 30,
        "mutation probability": 0.001,
        "crossover probability": 0.9
    },
    "Fitness": 1415368,
    "Solution": [
        259,
        130,
        679,
        418,
        379,
        825,
        400,
        871,
        531,
        155,
        714,
        845,
        946,
        304,
        413,
        517,
        937,
        863,
        372,
        855,
        905,
        541,
        747,
        192,
        698,
        30,
        562,
        335,
        616,
        480,
        653,
        518,
        120,
        610,
        424,
        930,
        298,
        492,
        336,
        339,
        785,
        430,
        691,
        669,
        257,
        682,
        684,
        820,
        226,
        502,
        324,
        659,
        802,
        899,
        580,
        617,
        228,
        929,
        892,
        514,
        792,
        840,
        829,
        501,
        445,
        677,
        795,
        671,
        951,
        504,
        342,
        111,
        25,
        873,
        168,
        63,
        839,
        577,
        706,
        728,
        196,
        443,
        807,
        320,
        274,
        101,
        470,
        923,
        215,
        932,
        705,
        20,
        174,
        594,
        493,
        818,
        737,
        268,
        555,
        209,
        719,
        299,
        846,
        994,
        685,
        405,
        920,
        599,
        640,
        316,
        358,
        788,
        769,
        822,
        949,
        575,
        963,
        227,
        454,
        212,
        327,
        733,
        271,
        37,
        904,
        83,
        108,
        620,
        300,
        919,
        993,
        707,
        835,
        646,
        99,
        962,
        991,
        417,
        753,
        322,
        468,
        131,
        407,
        80,
        847,
        794,
        475,
        781,
        348,
        626,
        220,
        550,
        139,
        522,
        328,
        340,
        23,
        770,
        948,
        110,
        403,
        658,
        118,
        65,
        198,
        548,
        701,
        248,
        142,
        149,
        513,
        751,
        484,
        216,
        157,
        278,
        796,
        256,
        742,
        284,
        867,
        124,
        911,
        780,
        9,
        601,
        104,
        173,
        838,
        147,
        966,
        697,
        680,
        183,
        74,
        332,
        683,
        976,
        191,
        750,
        985,
        53,
        896,
        665,
        895,
        777,
        947,
        982,
        486,
        915,
        762,
        766,
        824,
        250,
        786,
        67,
        85,
        96,
        321,
        772,
        189,
        726,
        201,
        535,
        345,
        567,
        240,
        338,
        718,
        54,
        624,
        608,
        35,
        395,
        86,
        199,
        821,
        326,
        305,
        712,
        997,
        980,
        596,
        238,
        297,
        849,
        313,
        898,
        213,
        341,
        736,
        481,
        520,
        612,
        394,
        992,
        217,
        450,
        790,
        222,
        837,
        765,
        64,
        527,
        459,
        661,
        45,
        582,
        128,
        232,
        975,
        188,
        125,
        438,
        761,
        961,
        350,
        145,
        585,
        524,
        50,
        609,
        872,
        627,
        542,
        275,
        989,
        82,
        94,
        981,
        182,
        397,
        360,
        886,
        964,
        464,
        34,
        536,
        826,
        912,
        741,
        843,
        289,
        910,
        984,
        817,
        160,
        703,
        133,
        479,
        460,
        467,
        952,
        471,
        466,
        150,
        771,
        334,
        163,
        763,
        143,
        90,
        483,
        87,
        734,
        349,
        14,
        561,
        230,
        51,
        461,
        88,
        243,
        556,
        154,
        651,
        353,
        623,
        7,
        696,
        457,
        836,
        378,
        246,
        357,
        942,
        382,
        998,
        273,
        727,
        167,
        755,
        27,
        302,
        815,
        229,
        876,
        236,
        422,
        593,
        973,
        854,
        828,
        883,
        79,
        739,
        800,
        180,
        333,
        419,
        858,
        688,
        254,
        377,
        343,
        819,
        218,
        487,
        362,
        177,
        619,
        281,
        996,
        373,
        315,
        453,
        148,
        48,
        537,
        654,
        190,
        462,
        587,
        442,
        655,
        543,
        934,
        576,
        303,
        844,
        283,
        455,
        448,
        224,
        251,
        689,
        590,
        162,
        295,
        245,
        827,
        172,
        956,
        458,
        738,
        423,
        495,
        724,
        939,
        642,
        552,
        570,
        356,
        103,
        573,
        106,
        924,
        19,
        365,
        660,
        376,
        834,
        730,
        917,
        645,
        109,
        901,
        868,
        138,
        10,
        15,
        140,
        812,
        632,
        392,
        888,
        887,
        589,
        754,
        152,
        337,
        241,
        508,
        370,
        549,
        600,
        999,
        296,
        494,
        636,
        221,
        433,
        317,
        990,
        385,
        388,
        598,
        921,
        225,
        702,
        783,
        390,
        699,
        801,
        249,
        399,
        347,
        310,
        890,
        61,
        931,
        127,
        988,
        933,
        476,
        558,
        33,
        756,
        367,
        711,
        968,
        656,
        371,
        979,
        381,
        657,
        29,
        618,
        764,
        208,
        431,
        68,
        57,
        559,
        55,
        178,
        18,
        615,
        967,
        203,
        586,
        344,
        841,
        974,
        509,
        700,
        637,
        534,
        909,
        352,
        782,
        693,
        735,
        81,
        638,
        387,
        692,
        813,
        202,
        533,
        927,
        331,
        329,
        789,
        325,
        649,
        681,
        49,
        472,
        885,
        977,
        959,
        539,
        258,
        361,
        634,
        644,
        43,
        851,
        171,
        547,
        31,
        955,
        491,
        2,
        852,
        938,
        146,
        538,
        830,
        288,
        774,
        987,
        77,
        137,
        877,
        740,
        866,
        814,
        72,
        22,
        704,
        880,
        307,
        16,
        496,
        102,
        411,
        809,
        136,
        971,
        569,
        266,
        233,
        151,
        193,
        579,
        194,
        314,
        529,
        253,
        91,
        355,
        725,
        808,
        21,
        490,
        265,
        540,
        52,
        285,
        775,
        903,
        277,
        916,
        882,
        452,
        652,
        694,
        566,
        132,
        13,
        286,
        126,
        477,
        936,
        42,
        122,
        881,
        66,
        261,
        17,
        252,
        943,
        384,
        532,
        24,
        474,
        953,
        758,
        972,
        544,
        412,
        291,
        156,
        92,
        978,
        242,
        633,
        546,
        306,
        870,
        214,
        791,
        463,
        512,
        391,
        944,
        60,
        708,
        204,
        312,
        565,
        505,
        578,
        264,
        922,
        893,
        473,
        449,
        114,
        731,
        678,
        270,
        89,
        195,
        93,
        3,
        375,
        595,
        925,
        860,
        408,
        672,
        368,
        166,
        319,
        716,
        153,
        421,
        26,
        641,
        364,
        557,
        717,
        129,
        797,
        276,
        647,
        553,
        572,
        416,
        902,
        643,
        816,
        374,
        965,
        667,
        440,
        366,
        926,
        71,
        605,
        247,
        59,
        11,
        574,
        958,
        482,
        158,
        0,
        768,
        995,
        12,
        606,
        784,
        100,
        210,
        663,
        112,
        179,
        732,
        670,
        380,
        833,
        170,
        861,
        884,
        499,
        668,
        864,
        744,
        427,
        560,
        269,
        262,
        874,
        169,
        393,
        630,
        434,
        607,
        970,
        787,
        36,
        869,
        287,
        506,
        330,
        954,
        95,
        554,
        383,
        969,
        515,
        478,
        662,
        804,
        940,
        889,
        105,
        446,
        244,
        161,
        32,
        776,
        875,
        1,
        223,
        4,
        409,
        799,
        832,
        47,
        279,
        906,
        908,
        805,
        625,
        426,
        231,
        239,
        629,
        793,
        293,
        690,
        918,
        159,
        525,
        447,
        723,
        848,
        935,
        914,
        410,
        713,
        507,
        687,
        519,
        58,
        235,
        650,
        856,
        280,
        255,
        41,
        611,
        588,
        521,
        760,
        894,
        432,
        983,
        39,
        165,
        798,
        773,
        206,
        456,
        950,
        960,
        115,
        219,
        749,
        205,
        444,
        878,
        503,
        720,
        469,
        428,
        673,
        710,
        116,
        721,
        363,
        729,
        571,
        441,
        584,
        211,
        639,
        900,
        865,
        396,
        62,
        516,
        451,
        185,
        404,
        6,
        323,
        715,
        779,
        614,
        78,
        831,
        401,
        676,
        84,
        263,
        628,
        583,
        40,
        308,
        415,
        497,
        602,
        850,
        709,
        545,
        551,
        181,
        144,
        176,
        46,
        429,
        439,
        402,
        294,
        622,
        290,
        98,
        913,
        369,
        5,
        465,
        346,
        722,
        73,
        485,
        675,
        44,
        631,
        853,
        8,
        135,
        113,
        141,
        386,
        564,
        891,
        123,
        859,
        748,
        635,
        811,
        134,
        311,
        528,
        267,
        803,
        272,
        526,
        879,
        389,
        767,
        425,
        197,
        581,
        621,
        500,
        591,
        510,
        175,
        664,
        309,
        674,
        435,
        666,
        38,
        806,
        359,
        97,
        489,
        897,
        351,
        56,
        398,
        69,
        686,
        945,
        292,
        282,
        613,
        186,
        530,
        745,
        75,
        757,
        511,
        907,
        237,
        234,
        752,
        318,
        184,
        759,
        597,
        436,
        928,
        28,
        523,
        695,
        604,
        862,
        187,
        986,
        207,
        568,
        941,
        842,
        164,
        957,
        592,
        107,
        121,
        498,
        70,
        603,
        437,
        810,
        488,
        406,
        778,
        76,
        414,
        746,
        563,
        420,
        743,
        823,
        200,
        117,
        301,
        354,
        857,
        260,
        119,
        648
    ],
    "Nb of functions evaluations": 50010,
    "Computational time in seconds": 1492.7223274707794,
    "Stopping criterion in evaluations": 50000
}